6 40 4 10
18 5 16 15 15 10 10 5 5 2 9 10 6 16 6 11 20 3 3 17 8 14 2 3 14 17 7 17 16 17 1 17 1 20 3 7 7 2 13 11 
12.27 0.49 4.78 11.11 10.17 12.64 1.67 13.77 14.72 0.88 15.75 5.17 13.77 12.6 7.47 11.5 4.76 7.3 7.79 6.74 15.47 11.2 12.04 3.97 4.33 8.64 1.02 7.89 8.73 13.26 12.03 5.16 15.19 1.1 14.87 10.9 11.07 3.42 2.51 1.34 
6.29 9.14 5.7 15.97 11.57 1.39 10.41 5.64 11.97 10.48 8.16 6.02 9.92 5.82 11.44 10.49 0.54 6.72 6.52 0.27 4.22 4.71 5.36 0.83 0.78 9.23 5.91 5.05 13.76 0.2 4.07 0.31 2.16 11.28 10.21 15.37 5.97 9.72 2.44 6.53 
13.01 15.28 14.03 13.24 14.74 14.95 1.86 15.06 12.87 14.62 0.95 10.27 8.17 7.79 7.07 1.38 0.07 11.34 3.69 10.08 2.05 14.05 15.72 1.18 13.82 9.16 9.66 11.7 10.4 1.26 12.46 6.55 14.31 14.86 15.06 2.01 15.31 5.21 4.19 6.38 
15.27 10.74 9.56 9.95 12.37 1.1 10.46 13.47 12.08 7.43 14.39 3.29 7.52 5.75 15.34 0.1 0.01 3.27 7.04 6.9 3.09 2.97 13.77 15.72 3.63 8.42 2.95 10.74 3.85 1.33 5.52 3.9 12.91 11.49 13.59 4.94 4.46 12.59 5.65 4.76 
8 8 8 8 8 8 8 8 8 8 8 8 8 8 8 8 8 8 8 8 8 8 8 8 8 8 8 8 8 8 8 8 8 8 8 8 8 8 8 8 
13.05 1.1 15.46 4.9 4.05 5.59 14.88 1.21 14.92 7.63 2.03 4.11 13.24 8.72 8.5 8.42 0.46 11.45 9.64 3.07 9.35 11.86 7.27 6.85 9.53 6.11 7.23 15.67 7.06 1.49 10.36 0.94 2.52 4.69 10.95 5.35 7.92 1.57 2 5.44 
1 1 1 1 1 1 1 1 1 1 1 1 1 1 1 1 1 1 1 1 1 1 1 1 1 1 1 1 1 1 1 1 1 1 1 1 1 1 1 1 
1 1 1 1 1 1 1 1 1 1 1 1 1 1 1 1 1 1 1 1 1 1 1 1 1 1 1 1 1 1 1 1 1 1 1 1 1 1 1 1 
1 1 1 1 1 1 1 1 1 1 1 1 1 1 1 1 1 1 1 1 1 1 1 1 1 1 1 1 1 1 1 1 1 1 1 1 1 1 1 1 
1 1 1 1 1 1 1 1 1 1 1 1 1 1 1 1 1 1 1 1 1 1 1 1 1 1 1 1 1 1 1 1 1 1 1 1 1 1 1 1 
1 1 1 1 1 1 1 1 1 1 1 1 1 1 1 1 1 1 1 1 1 1 1 1 1 1 1 1 1 1 1 1 1 1 1 1 1 1 1 1 
1 1 1 1 1 1 1 1 1 1 1 1 1 1 1 1 1 1 1 1 1 1 1 1 1 1 1 1 1 1 1 1 1 1 1 1 1 1 1 1 
0.01 0.01 0.01 0.01 0.01 0.01 0.01 0.01 0.01 0.01 0.01 0.01 0.01 0.01 0.01 0.01 0.01 0.01 0.01 0.01 0.01 0.01 0.01 0.01 0.01 0.01 0.01 0.01 0.01 0.01 0.01 0.01 0.01 0.01 0.01 0.01 0.01 0.01 0.01 0.01 
0.02 0.02 0.02 0.02 0.02 0.02 0.02 0.02 0.02 0.02 0.02 0.02 0.02 0.02 0.02 0.02 0.02 0.02 0.02 0.02 0.02 0.02 0.02 0.02 0.02 0.02 0.02 0.02 0.02 0.02 0.02 0.02 0.02 0.02 0.02 0.02 0.02 0.02 0.02 0.02 
0.03 0.03 0.03 0.03 0.03 0.03 0.03 0.03 0.03 0.03 0.03 0.03 0.03 0.03 0.03 0.03 0.03 0.03 0.03 0.03 0.03 0.03 0.03 0.03 0.03 0.03 0.03 0.03 0.03 0.03 0.03 0.03 0.03 0.03 0.03 0.03 0.03 0.03 0.03 0.03 
0.04 0.04 0.04 0.04 0.04 0.04 0.04 0.04 0.04 0.04 0.04 0.04 0.04 0.04 0.04 0.04 0.04 0.04 0.04 0.04 0.04 0.04 0.04 0.04 0.04 0.04 0.04 0.04 0.04 0.04 0.04 0.04 0.04 0.04 0.04 0.04 0.04 0.04 0.04 0.04 
0.05 0.05 0.05 0.05 0.05 0.05 0.05 0.05 0.05 0.05 0.05 0.05 0.05 0.05 0.05 0.05 0.05 0.05 0.05 0.05 0.05 0.05 0.05 0.05 0.05 0.05 0.05 0.05 0.05 0.05 0.05 0.05 0.05 0.05 0.05 0.05 0.05 0.05 0.05 0.05 
1 1 1 1 1 1 1 1 1 1 1 1 1 1 1 1 1 1 1 1 1 1 1 1 1 1 1 1 1 1 1 1 1 1 1 1 1 1 1 1 
